Translating instance to solver...

Set parameter TimeLimit to value 28800
Gurobi Optimizer version 11.0.2 build v11.0.2rc0 (linux64 - "Ubuntu 22.04.4 LTS")

CPU model: Intel(R) Xeon(R) Gold 5120 CPU @ 2.20GHz, instruction set [SSE2|AVX|AVX2|AVX512]
Thread count: 28 physical cores, 56 logical processors, using up to 28 threads

Academic license 2463511 - for non-commercial use only - registered to lu___@cefet-rj.br
Optimize a model with 12725 rows, 7643 columns and 31653 nonzeros
Model fingerprint: 0xeb22966c
Variable types: 1 continuous, 7642 integer (7620 binary)
Coefficient statistics:
  Matrix range     [1e+00, 1e+05]
  Objective range  [3e-01, 8e-01]
  Bounds range     [1e+00, 2e+01]
  RHS range        [1e+00, 9e+01]
Presolve removed 10521 rows and 6696 columns
Presolve time: 0.19s
Presolved: 2204 rows, 947 columns, 7233 nonzeros
Variable types: 0 continuous, 947 integer (926 binary)
Found heuristic solution: objective 9.4119290
Found heuristic solution: objective 8.3501470

Root relaxation: objective 2.151382e+00, 522 iterations, 0.01 seconds (0.01 work units)

    Nodes    |    Current Node    |     Objective Bounds      |     Work
 Expl Unexpl |  Obj  Depth IntInf | Incumbent    BestBd   Gap | It/Node Time

     0     0    2.15138    0   59    8.35015    2.15138  74.2%     -    0s
H    0     0                       8.0442560    2.15138  73.3%     -    0s
H    0     0                       5.4530190    2.15138  60.5%     -    0s
     0     0    2.16460    0   82    5.45302    2.16460  60.3%     -    0s
H    0     0                       4.5353460    2.26767  50.0%     -    0s
H    0     0                       4.0853460    2.26767  44.5%     -    0s
     0     0    2.26767    0   68    4.08535    2.26767  44.5%     -    0s
H    0     0                       3.7794550    2.26767  40.0%     -    0s
H    0     0                       3.3294550    2.26767  31.9%     -    0s
     0     0    2.26767    0   66    3.32946    2.26767  31.9%     -    0s
     0     0    2.26767    0   63    3.32946    2.26767  31.9%     -    0s
     0     0    2.26767    0   53    3.32946    2.26767  31.9%     -    0s
H    0     0                       3.0235640    2.26767  25.0%     -    0s
     0     0    2.26767    0   52    3.02356    2.26767  25.0%     -    0s
     0     0    2.26767    0   43    3.02356    2.26767  25.0%     -    0s
     0     0    2.29551    0   69    3.02356    2.29551  24.1%     -    0s
     0     0    2.34142    0   23    3.02356    2.34142  22.6%     -    0s
     0     0    2.37426    0  108    3.02356    2.37426  21.5%     -    0s
     0     0    2.40246    0   45    3.02356    2.40246  20.5%     -    0s
H    0     0                       2.8794550    2.41178  16.2%     -    0s
     0     0    2.41178    0   83    2.87946    2.41178  16.2%     -    0s
     0     0    2.42996    0   85    2.87946    2.42996  15.6%     -    0s
     0     0    2.43292    0   51    2.87946    2.43292  15.5%     -    0s
     0     0    2.43292    0   44    2.87946    2.43292  15.5%     -    1s
     0     0    2.43292    0   53    2.87946    2.43292  15.5%     -    1s
     0     0    2.43292    0   79    2.87946    2.43292  15.5%     -    1s
H    0     0                       2.5735640    2.43292  5.47%     -    1s
     0     0    2.43292    0   83    2.57356    2.43292  5.47%     -    1s
     0     0    2.43292    0   45    2.57356    2.43292  5.47%     -    1s
     0     0    2.43292    0  125    2.57356    2.43292  5.47%     -    1s
     0     0    2.43292    0  121    2.57356    2.43292  5.47%     -    1s
     0     0    2.43292    0   56    2.57356    2.43292  5.47%     -    1s
     0     0    2.43292    0   59    2.57356    2.43292  5.47%     -    1s
     0     0    2.43292    0   91    2.57356    2.43292  5.47%     -    1s
     0     0    2.43292    0  162    2.57356    2.43292  5.47%     -    1s
     0     0    2.43292    0  133    2.57356    2.43292  5.47%     -    1s
     0     0    2.43292    0  144    2.57356    2.43292  5.47%     -    1s
     0     0    2.43292    0  143    2.57356    2.43292  5.47%     -    1s
     0     0    2.43292    0  141    2.57356    2.43292  5.47%     -    1s
     0     2    2.43292    0  141    2.57356    2.43292  5.47%     -    2s

Cutting planes:
  Learned: 29
  Gomory: 3
  Implied bound: 22
  Clique: 4
  MIR: 7
  Zero half: 5
  RLT: 54
  Relax-and-lift: 7
  BQP: 16

Explored 115 nodes (16396 simplex iterations) in 2.21 seconds (1.42 work units)
Thread count was 28 (of 56 available processors)

Solution count 10: 2.57356 2.87946 3.02356 ... 8.35015

Optimal solution found (tolerance 1.00e-04)
Best objective 2.573564000000e+00, best bound 2.573564000000e+00, gap 0.0000%

Solver Wallclock Time (for this epsilon): 2.209242105484009 s
Python wallclock Time (for this epsilon): 3.1427154541015625 s


Total Elapsed Time (since program call): 31.26115107536316 s

Results:

I = 2.573564 mA
C = 91.0 points
C ~= 36.4 km^2

Minimum Epsilon for this instance = 10
Maximum Epsilon for this instance = 100

Current Epsilon = 90


Preprocessing Time (for this epsilon): 0.003402233123779297 s


Updated solution vectors:
sol_I = [-0.611782,-1.061782,-1.061782,-1.061782,-1.061782,-1.511782,-1.511782,-2.267673,-2.573564]
sol_C = [14.0,48.0,48.0,49.0,50.0,73.0,70.0,87.0,91.0]
sol_eps = [10,20,30,40,50,60,70,80,90]
sol_gap = [0.0,0.0,0.0,0.0,0.0,0.0,1.6578947303891312e-07,0.0,0.0]
